c description: Random 3-CNF over 21 variables and 89 clauses
c generator: CNFgen (0.9.2)
c copyright: (C) 2012-2022 Massimo Lauria <massimo.lauria@uniroma1.it>
c url: https://massimolauria.net/cnfgen
c command line: cnfgen --output CNF_4.28/21_bit_89_375.cnf randkcnf 3 21 89
c
p cnf 21 89
-10 15 -17 0
6 -14 20 0
-3 17 -21 0
11 -14 15 0
-9 11 -17 0
-3 4 18 0
9 10 -12 0
-10 12 14 0
-5 -6 15 0
6 -16 17 0
-18 -19 -20 0
5 -19 21 0
-1 2 -18 0
8 12 -13 0
8 -11 13 0
-1 8 17 0
-1 -12 -13 0
12 19 -21 0
-4 -19 -21 0
-2 -15 16 0
-3 9 -20 0
5 11 -20 0
1 -4 -13 0
2 4 -21 0
2 -13 20 0
-9 13 -14 0
-7 13 21 0
9 11 16 0
1 -3 14 0
-10 13 21 0
-2 -7 11 0
4 -8 -16 0
-5 15 -18 0
-5 -15 -18 0
-12 15 -17 0
-8 17 -19 0
2 -10 14 0
-11 15 19 0
-3 -7 -19 0
1 5 -19 0
7 -12 -17 0
-7 -16 -17 0
14 -15 17 0
11 13 -17 0
-1 6 -11 0
6 8 14 0
-1 -3 20 0
5 9 -11 0
-1 -6 -9 0
-4 -11 -17 0
2 -3 10 0
-2 8 -17 0
-9 -13 -15 0
15 16 18 0
5 -10 17 0
-2 12 16 0
7 -8 11 0
2 -8 -10 0
-14 -15 19 0
3 -17 19 0
2 4 -6 0
2 8 -9 0
7 12 -16 0
-3 -8 -14 0
-12 -13 -18 0
-3 11 -18 0
12 -15 -18 0
-3 7 13 0
-3 7 -13 0
-15 -16 20 0
10 12 -17 0
-12 13 -18 0
-2 11 -17 0
9 -12 -19 0
5 7 -21 0
-10 -14 18 0
6 15 17 0
-10 11 -15 0
12 -17 20 0
-6 -15 -17 0
-3 11 18 0
-2 -18 21 0
-1 -15 -18 0
1 3 4 0
3 -9 -17 0
5 -14 17 0
-7 -11 19 0
2 -10 -19 0
-3 5 -14 0
